/*********************************************
    * Lab01 - simple
    * Author: Coso
    * Creation Date: Mar, 2019
    *********************************************/
instance_name = "medium_instance_22_simple";

d = 5;
r = 15;

SCj = [304 288 307 301 306];
Dk = [81 48 65 59 73 58 50 20 57 59 14 61 52 94 36];

Cjk = [[37 86 69 75 84 56 71 68 48 69 56 85 60 31 74]
 [57 77 56 74 74 53 74 83 80 62 69 39 80 51 35]
 [60 84 85 86 36 81 47 54 54 62 53 41 81 44 63]
 [74 50 40 77 74 59 84 68 55 61 31 38 50 88 56]
 [80 64 82 70 41 31 48 76 65 37 87 83 56 50 66]];
